46
75
59	2
58	3
56	5
54	1
53	3
52	3
51	2
50	1
49	4
48	3
47	1
46	4
45	2
44	1
43	2
42	2
41	2
40	1
39	1
38	2
37	2
35	1
33	2
32	3
31	1
30	1
29	5
28	4
25	3
24	2
23	1
22	3
21	3
20	1
19	1
18	1
16	4
15	1
14	2
13	1
12	3
11	1
10	4
9	2
8	2
7	1
